webassembly/ejemplos_results/5/folder5_json_64.txt
value = 5;
fgas = [1, 1, 1, 1, 1];
fsize = [1, 1, 1, 1, 1];
states = 
[|   in_0, in_1, in_2, in_3, '.', '.', '.', '.', '.'
 | 's(0)', in_2, in_3,  '.', '.', '.', '.', '.', '.'
 |   in_2, in_3,  '.',  '.', '.', '.', '.', '.', '.'
 | 's(1)', in_3,  '.',  '.', '.', '.', '.', '.', '.'
 | 's(2)',  '.',  '.',  '.', '.', '.', '.', '.', '.'
 |    '.',  '.',  '.',  '.', '.', '.', '.', '.', '.'
 |];
register_states = 
[| local_0, local_1, '.', '.', '.', '.', '.'
 | local_0, local_1, '.', '.', '.', '.', '.'
 | local_0,  's(0)', '.', '.', '.', '.', '.'
 | local_0,  's(0)', '.', '.', '.', '.', '.'
 | local_0,  's(0)', '.', '.', '.', '.', '.'
 |  's(2)',  's(0)', '.', '.', '.', '.', '.'
 |];
program = [O('i32.add_0'), S(SET2), O('i32.load16_u_2'), O('i32.sub_0'), S(SET1)];
% time elapsed: 0.07 s
----------
==========
% time elapsed: 0.07 s
% [value > 4]
